c turning on binary mode checking
c parsing input formula with 259840 variables and 1039924 clauses
c finished parsing, read 44117514 bytes from proof file
c detected empty clause; start verification via backward checking
c 84074 of 1039924 clauses in core                            
c 154996 of 843468 lemmas in core using 2353242 resolution steps
c 0 RAT lemmas in core; 24284 redundant literals in core lemmas
s VERIFIED
c verification time: 11.211 seconds
